CPXPARAM_Read_DataCheck                          1
Found incumbent of value 0.000000 after 0.00 sec. (0.26 ticks)
Tried aggregator 1 time.
MIP Presolve eliminated 3 rows and 0 columns.
MIP Presolve modified 1 coefficients.
Reduced MIP has 1030 rows, 10010 columns, and 47034 nonzeros.
Reduced MIP has 10010 binaries, 0 generals, 0 SOSs, and 0 indicators.
Presolve time = 0.02 sec. (18.23 ticks)
Tried aggregator 1 time.
Reduced MIP has 1030 rows, 10010 columns, and 47034 nonzeros.
Reduced MIP has 10010 binaries, 0 generals, 0 SOSs, and 0 indicators.
Presolve time = 0.02 sec. (20.47 ticks)
Probing time = 0.03 sec. (7.48 ticks)
Clique table members: 33577.
MIP emphasis: balance optimality and feasibility.
MIP search method: dynamic search.
Parallel mode: deterministic, using up to 4 threads.
Root relaxation solution time = 0.08 sec. (73.96 ticks)

        Nodes                                         Cuts/
   Node  Left     Objective  IInf  Best Integer    Best Bound    ItCnt     Gap

*     0+    0                            0.0000    61513.0000              --- 
*     0+    0                         3667.0000    61513.0000              --- 
      0     0    34367.3330    10     3667.0000    34367.3330     1998  837.21%
*     0+    0                        17930.0000    34367.3330            91.68%
      0     0    34335.7820    10    17930.0000  Cliques: 357     2022   42.13%
      0     0        cutoff          17930.0000    17930.0000     2036    0.00%
Elapsed time = 3.02 sec. (1328.61 ticks, tree = 0.01 MB, solutions = 3)

Clique cuts applied:  710

Root node processing (before b&c):
  Real time             =    3.02 sec. (1329.32 ticks)
Parallel b&c, 4 threads:
  Real time             =    0.00 sec. (0.00 ticks)
  Sync time (average)   =    0.00 sec.
  Wait time (average)   =    0.00 sec.
                          ------------
Total (root+branch&cut) =    3.02 sec. (1329.32 ticks)
